Version identifier: 22.1.0.0 | 2022-03-09 | 1a383f8ce
CPXPARAM_Read_DataCheck                          1
CPXPARAM_TimeLimit                               600
Tried aggregator 4 times.
MIP Presolve eliminated 75752 rows and 7498 columns.
MIP Presolve modified 969 coefficients.
Aggregator did 69948 substitutions.
Reduced MIP has 8167 rows, 71474 columns, and 151284 nonzeros.
Reduced MIP has 71440 binaries, 34 generals, 0 SOSs, and 0 indicators.
Presolve time = 0.86 sec. (906.45 ticks)
Tried aggregator 1 time.
Detecting symmetries...
Reduced MIP has 8167 rows, 71474 columns, and 151284 nonzeros.
Reduced MIP has 71440 binaries, 34 generals, 0 SOSs, and 0 indicators.
Presolve time = 0.15 sec. (107.87 ticks)
Probing fixed 55 vars, tightened 0 bounds.
Probing time = 0.34 sec. (30.77 ticks)
Clique table members: 144830.
MIP emphasis: balance optimality and feasibility.
MIP search method: dynamic search.
Parallel mode: deterministic, using up to 8 threads.
Root relaxation solution time = 1.24 sec. (657.22 ticks)

        Nodes                                         Cuts/
   Node  Left     Objective  IInf  Best Integer    Best Bound    ItCnt     Gap

      0     0       34.4356  6482                     34.4356       29         
      0     0       59.0000   965                    Cuts: 53    14168         
      0     0       59.0000   735                    Cuts: 87    29089         
      0     0       59.0000   869                    Cuts: 53    39781         
      0     0       59.0000   819                ZeroHalf: 54    50901         
      0     0       59.0000   856                    Cuts: 53    66728         
Heuristic still looking.
Heuristic still looking.
Heuristic still looking.
      0     2       59.0000   856                     59.0000    66728         
Elapsed time = 261.35 sec. (157314.55 ticks, tree = 0.02 MB, solutions = 0)
      1     3       59.0000   662                     59.0000    79207         
      2     4       59.0000   593                     59.0000    88522         
      3     4       59.0000   647                     59.0000    90934         
      4     3       59.0000   851                     59.0000    79400         
      5     5       59.0000   730                     59.0000   100359         
      7     9       59.0000   569                     59.0000   140701         
      8     9       59.0000   656                     59.0000   138917         
      9     5       59.0000   665                     59.0000    98001         
     10    10       59.0001   591                     59.0000   146059         
     12    11       59.0000   624                     59.0000   149140         
Elapsed time = 391.97 sec. (194631.54 ticks, tree = 0.10 MB, solutions = 0)
     14    15       59.0667   919                     59.0000   215206         
     16    16       59.0000   751                     59.0000   188196         
     20    17       59.0000   780                     59.0000   201626         
     24    17       59.0667   921                     59.0000   249311         
     25    13       59.0435   645                     59.0000   228454         
     27    18       59.0000  1620                     59.0000   217024         
     28    19       59.0435  1363                     59.0000   285732         
     31    20       59.0000  1352                     59.0000   302026         
     33     7       59.0000   573                     59.0000   121189         
     36    28       59.0667   792                     59.0000   417188         
Elapsed time = 494.89 sec. (212879.28 ticks, tree = 0.40 MB, solutions = 0)
     37    21       59.0435  1154                     59.0000   287253         
     41    31       59.0667   829                     59.0000   423221         
     44    22       59.0000  1232                     59.0000   303687         
     48    40       59.0000   829                     59.0000   491696         
     54    17       59.0000   862                     59.0000   222202         
     57    24       59.0000   654                     59.0000   329626         
     66    39       59.1143   958                     59.0000   440260         
     74    57       59.0667   718                     59.0000   608431         
     78    65       59.0000   928                     59.0000   635344         
     84    46       59.0000   910                     59.0000   599009         
Elapsed time = 561.85 sec. (224278.85 ticks, tree = 0.78 MB, solutions = 0)
     92    76       59.0000   764                     59.0000   668652         
     99    65       59.1193   839                     59.0000   635025         
    103    86       59.0000   989                     59.0000   717442         
    105    77       59.1498  1066                     59.0000   675344         
    113    80       59.0000  1155                     59.0000   696690         
    117    69       59.0000   531                     59.0000   655109         

Clique cuts applied:  4
Zero-half cuts applied:  182
Lift and project cuts applied:  5
Gomory fractional cuts applied:  28

Root node processing (before b&c):
  Real time             =  261.04 sec. (157206.28 ticks)
Parallel b&c, 8 threads:
  Real time             =  339.41 sec. (74952.14 ticks)
  Sync time (average)   =   94.32 sec.
  Wait time (average)   =    0.00 sec.
                          ------------
Total (root+branch&cut) =  600.44 sec. (232158.42 ticks)
